
        $ From http://www.csplib.org/Problems/prob009/data/helmut.pdf
        $ Problem number 90
        $ Sequence length : 25
        language ESSENCE' 1.0
        letting sizemaster be 323
        letting sizes be sequence(3,8,9,11,17,18,22,25,26,27,29,30,31,33,35,49,51,67,72,73,83,88,95,155,168)
        